c description: tiling of 
c generator: CNFgen (0.9.0)
c copyright: (C) 2012-2020 Massimo Lauria <massimo.lauria@uniroma1.it>
c url: https://massimolauria.net/cnfgen
c
p cnf 20 95
-1 -3 0
-1 -15 0
-3 -15 0
1 3 15 0
-1 -5 0
1 5 0
-1 -5 0
-1 -9 0
-1 -15 0
-5 -9 0
-5 -15 0
-9 -15 0
1 5 9 15 0
-1 -9 0
1 9 0
-2 -7 0
-2 -16 0
-2 -20 0
-7 -16 0
-7 -20 0
-16 -20 0
2 7 16 20 0
-2 -20 0
2 20 0
-3 -4 0
-3 -13 0
-3 -15 0
-3 -19 0
-4 -13 0
-4 -15 0
-4 -19 0
-13 -15 0
-13 -19 0
-15 -19 0
3 4 13 15 19 0
-3 -4 0
-3 -17 0
-4 -17 0
3 4 17 0
-3 -6 0
-3 -13 0
-3 -14 0
-6 -13 0
-6 -14 0
-13 -14 0
3 6 13 14 0
-3 -16 0
-3 -19 0
-16 -19 0
3 16 19 0
-4 -14 0
-4 -17 0
-14 -17 0
4 14 17 0
-6 -13 0
6 13 0
-7 -11 0
-7 -14 0
-7 -16 0
-7 -19 0
-7 -20 0
-11 -14 0
-11 -16 0
-11 -19 0
-11 -20 0
-14 -16 0
-14 -19 0
-14 -20 0
-16 -19 0
-16 -20 0
-19 -20 0
7 11 14 16 19 20 0
-7 -16 0
-7 -20 0
-16 -20 0
7 16 20 0
-8 -11 0
-8 -18 0
-11 -18 0
8 11 18 0
-8 -18 0
8 18 0
10 0
-11 -16 0
-11 -18 0
-16 -18 0
11 16 18 0
12 0
-13 -14 0
-13 -16 0
-13 -17 0
-14 -16 0
-14 -17 0
-16 -17 0
13 14 16 17 0